networks/zoo_138_4692/zoo_138_4692-lower.txt
Number of groups: 70
Flow 54: {55 124 0} 
Flow 327: {5 6 0} {6 55 0} {55 56 0} {56 125 0} 
Flow 430: {7 2 0} {2 4 0} {4 23 0} {23 92 0} 
Flow 483: {8 52 0} {52 7 0} {7 76 0} 
Flow 673: {10 27 0} {27 62 0} {62 131 0} 
Flow 729: {11 51 0} {51 50 0} {50 119 0} 
Flow 761: {12 11 0} {11 6 0} {6 4 0} {4 62 0} {62 13 0} {13 14 0} {14 83 0} 
Flow 844: {33 29 0} {29 98 0} 
Flow 922: {14 13 0} {13 62 0} {62 17 0} {17 18 0} {18 26 0} {26 39 0} {39 108 0} 
Flow 965: {31 57 0} {57 43 0} {43 16 0} {16 13 0} {13 82 0} 
Flow 1063: {16 44 0} {44 113 0} 
Flow 1105: {18 87 0} 
Flow 1309: {20 19 0} {19 24 0} {24 23 0} {23 17 0} {17 86 0} 
Flow 1370: {21 22 0} {22 23 0} {23 62 0} {62 27 0} 
Flow 1474: {22 21 0} {21 19 0} {19 47 0} {47 116 0} 
Flow 1520: {25 94 0} 
Flow 1565: {24 1 0} {1 70 0} 
Flow 1777: {27 10 0} {10 9 0} {9 78 0} 
Flow 1787: {47 19 0} {19 88 0} 
Flow 1808: {27 30 0} {30 14 0} {14 41 0} {41 110 0} 
Flow 1858: {28 62 0} {62 23 0} {23 22 0} {22 91 0} 
Flow 1925: {29 33 0} {33 2 0} {2 1 0} {1 24 0} {24 19 0} {19 21 0} {21 90 0} 
Flow 2084: {15 32 0} {32 45 0} {45 114 0} 
Flow 2150: {45 43 0} {43 112 0} 
Flow 2300: {34 41 0} {41 14 0} {14 44 0} {44 57 0} {57 126 0} 
Flow 2348: {35 36 0} {36 28 0} {28 37 0} {37 106 0} 
Flow 2428: {36 35 0} {35 63 0} {63 2 0} {2 49 0} {49 118 0} 
Flow 2481: {37 9 0} {9 30 0} {30 13 0} {13 33 0} {33 102 0} 
Flow 2557: {38 9 0} {9 63 0} {63 64 0} {64 42 0} {42 111 0} 
Flow 2592: {26 25 0} {25 23 0} {23 4 0} {4 6 0} {6 5 0} {5 8 0} {8 77 0} 
Flow 2622: {39 26 0} {26 18 0} {18 17 0} {17 62 0} {62 63 0} {63 9 0} {9 38 0} {38 107 0} 
Flow 2709: {40 42 0} {42 64 0} {64 65 0} {65 58 0} {58 127 0} 
Flow 2730: {30 9 0} {9 10 0} {10 79 0} 
Flow 2752: {13 16 0} {16 43 0} {43 45 0} {45 32 0} {32 101 0} 
Flow 2754: {41 34 0} {34 103 0} 
Flow 2812: {42 40 0} {40 17 0} {17 23 0} {23 24 0} {24 93 0} 
Flow 2823: {64 63 0} {63 35 0} {35 104 0} 
Flow 2854: {58 67 0} {67 136 0} 
Flow 2871: {43 57 0} {57 31 0} {31 15 0} {15 84 0} 
Flow 3023: {32 15 0} {15 31 0} {31 100 0} 
Flow 3057: {9 66 0} {66 135 0} 
Flow 3107: {46 4 0} {4 47 0} {47 48 0} {48 117 0} 
Flow 3123: {62 64 0} {64 133 0} 
Flow 3248: {48 54 0} {54 55 0} {55 53 0} {53 122 0} 
Flow 3255: {3 61 0} {61 60 0} {60 129 0} 
Flow 3275: {49 51 0} {51 11 0} {11 80 0} 
Flow 3462: {51 49 0} {49 2 0} {2 63 0} {63 132 0} 
Flow 3468: {50 1 0} {1 69 0} {69 138 0} 
Flow 3473: {52 8 0} {8 5 0} {5 74 0} 
Flow 3588: {53 55 0} {55 1 0} {1 2 0} {2 7 0} {7 52 0} {52 121 0} 
Flow 3607: {54 48 0} {48 47 0} {47 4 0} {4 3 0} {3 72 0} 
Flow 3746: {56 55 0} {55 6 0} {6 75 0} 
Flow 3766: {23 25 0} {25 26 0} {26 95 0} 
Flow 3835: {57 44 0} {44 14 0} {14 30 0} {30 27 0} {27 96 0} 
Flow 3836: {44 63 0} {63 62 0} {62 28 0} {28 97 0} 
Flow 3946: {59 2 0} {2 71 0} 
Flow 4058: {61 3 0} {3 4 0} {4 46 0} {46 115 0} 
Flow 4079: {60 68 0} {68 137 0} 
Flow 4139: {4 2 0} {2 59 0} {59 128 0} 
Flow 4232: {63 44 0} {44 16 0} {16 85 0} 
Flow 4256: {17 40 0} {40 109 0} 
Flow 4372: {19 20 0} {20 89 0} 
Flow 4406: {65 64 0} {64 62 0} {62 4 0} {4 1 0} {1 55 0} {55 54 0} {54 123 0} 
Flow 4456: {66 9 0} {9 37 0} {37 28 0} {28 36 0} {36 105 0} 
Flow 4492: {68 69 0} {69 1 0} {1 4 0} {4 73 0} 
Flow 4549: {67 68 0} {68 60 0} {60 61 0} {61 130 0} 
Flow 4636: {6 11 0} {11 12 0} {12 81 0} 
Flow 4654: {2 33 0} {33 13 0} {13 30 0} {30 99 0} 
Flow 4675: {1 50 0} {50 51 0} {51 120 0} 
Flow 4689: {69 68 0} {68 67 0} {67 58 0} {58 65 0} {65 134 0} 
Time taken running everything: 37 seconds
