networks/zoo_138_4692/zoo_138_4692-lower.sol
<?xml version = "1.0" encoding="UTF-8" standalone="yes"?>
<CPLEXSolution version="1.2">
 <header
   problemName="networks/zoo_138_4692/zoo_138_4692-lower.lp"
   solutionName="incumbent"
   solutionIndex="-1"
   objectiveValue="70"
   solutionTypeValue="3"
   solutionTypeString="primal"
   solutionStatusValue="101"
   solutionStatusString="integer optimal solution"
   solutionMethodString="mip"
   primalFeasible="1"
   dualFeasible="1"
   MIPNodes="0"
   MIPIterations="14"
   writeLevel="3"/>
 <quality
   epInt="1.0000000000000001e-05"
   epRHS="9.9999999999999995e-07"
   maxIntInfeas="0"
   maxPrimalInfeas="0"
   maxX="1"
   maxSlack="1"/>
 <variables>
  <variable name="Y(54,55)" index="7368" value="1"/>
  <variable name="Y(327,56)" index="45043" value="1"/>
  <variable name="Y(430,23)" index="59224" value="1"/>
  <variable name="Y(483,7)" index="66522" value="1"/>
  <variable name="Y(673,62)" index="92797" value="1"/>
  <variable name="Y(729,50)" index="100513" value="1"/>
  <variable name="Y(761,14)" index="104893" value="1"/>
  <variable name="Y(844,29)" index="116362" value="1"/>
  <variable name="Y(922,39)" index="127136" value="1"/>
  <variable name="Y(965,13)" index="133044" value="1"/>
  <variable name="Y(1063,44)" index="146599" value="1"/>
  <variable name="Y(1105,18)" index="152369" value="1"/>
  <variable name="Y(1309,17)" index="180520" value="1"/>
  <variable name="Y(1370,62)" index="188983" value="1"/>
  <variable name="Y(1474,47)" index="203320" value="1"/>
  <variable name="Y(1520,25)" index="209646" value="1"/>
  <variable name="Y(1565,1)" index="215832" value="1"/>
  <variable name="Y(1777,9)" index="245096" value="1"/>
  <variable name="Y(1787,19)" index="246486" value="1"/>
  <variable name="Y(1808,41)" index="249406" value="1"/>
  <variable name="Y(1858,22)" index="256287" value="1"/>
  <variable name="Y(1925,21)" index="265532" value="1"/>
  <variable name="Y(2084,45)" index="287498" value="1"/>
  <variable name="Y(2150,43)" index="296604" value="1"/>
  <variable name="Y(2300,57)" index="317318" value="1"/>
  <variable name="Y(2348,37)" index="323922" value="1"/>
  <variable name="Y(2428,49)" index="334974" value="1"/>
  <variable name="Y(2481,33)" index="342272" value="1"/>
  <variable name="Y(2557,42)" index="352769" value="1"/>
  <variable name="Y(2592,8)" index="357565" value="1"/>
  <variable name="Y(2622,38)" index="361735" value="1"/>
  <variable name="Y(2709,58)" index="373761" value="1"/>
  <variable name="Y(2730,10)" index="376611" value="1"/>
  <variable name="Y(2752,32)" index="379669" value="1"/>
  <variable name="Y(2754,34)" index="379947" value="1"/>
  <variable name="Y(2812,24)" index="387941" value="1"/>
  <variable name="Y(2823,35)" index="389470" value="1"/>
  <variable name="Y(2854,67)" index="393780" value="1"/>
  <variable name="Y(2871,15)" index="396074" value="1"/>
  <variable name="Y(3023,31)" index="417066" value="1"/>
  <variable name="Y(3057,66)" index="421793" value="1"/>
  <variable name="Y(3107,48)" index="428675" value="1"/>
  <variable name="Y(3123,64)" index="430899" value="1"/>
  <variable name="Y(3248,53)" index="448138" value="1"/>
  <variable name="Y(3255,60)" index="449111" value="1"/>
  <variable name="Y(3275,11)" index="451822" value="1"/>
  <variable name="Y(3462,63)" index="477680" value="1"/>
  <variable name="Y(3468,69)" index="478514" value="1"/>
  <variable name="Y(3473,5)" index="479140" value="1"/>
  <variable name="Y(3588,52)" index="495057" value="1"/>
  <variable name="Y(3607,3)" index="497630" value="1"/>
  <variable name="Y(3746,6)" index="516815" value="1"/>
  <variable name="Y(3766,26)" index="519595" value="1"/>
  <variable name="Y(3835,27)" index="529118" value="1"/>
  <variable name="Y(3836,28)" index="529257" value="1"/>
  <variable name="Y(3946,2)" index="544411" value="1"/>
  <variable name="Y(4058,46)" index="559911" value="1"/>
  <variable name="Y(4079,68)" index="562831" value="1"/>
  <variable name="Y(4139,59)" index="571102" value="1"/>
  <variable name="Y(4232,16)" index="583893" value="1"/>
  <variable name="Y(4256,40)" index="587229" value="1"/>
  <variable name="Y(4372,20)" index="603217" value="1"/>
  <variable name="Y(4406,54)" index="607943" value="1"/>
  <variable name="Y(4456,36)" index="614825" value="1"/>
  <variable name="Y(4492,4)" index="619761" value="1"/>
  <variable name="Y(4549,61)" index="627684" value="1"/>
  <variable name="Y(4636,12)" index="639641" value="1"/>
  <variable name="Y(4654,30)" index="642143" value="1"/>
  <variable name="Y(4675,51)" index="645062" value="1"/>
  <variable name="Y(4689,65)" index="647008" value="1"/>
  <variable name="X(1,2,3588)" index="651083" value="1"/>
  <variable name="X(1,4,4492)" index="656679" value="1"/>
  <variable name="X(1,24,1925)" index="658804" value="1"/>
  <variable name="X(1,50,4675)" index="666246" value="1"/>
  <variable name="X(1,55,4406)" index="670669" value="1"/>
  <variable name="X(1,69,3468)" index="674423" value="1"/>
  <variable name="X(1,70,1565)" index="677212" value="1"/>
  <variable name="X(2,1,1925)" index="682264" value="1"/>
  <variable name="X(2,4,430)" index="685461" value="1"/>
  <variable name="X(2,7,3588)" index="693311" value="1"/>
  <variable name="X(2,33,4654)" index="699069" value="1"/>
  <variable name="X(2,49,2428)" index="701535" value="1"/>
  <variable name="X(2,59,4139)" index="707938" value="1"/>
  <variable name="X(2,63,3462)" index="711953" value="1"/>
  <variable name="X(2,71,3946)" index="717129" value="1"/>
  <variable name="X(3,4,4058)" index="721933" value="1"/>
  <variable name="X(3,61,3255)" index="725822" value="1"/>
  <variable name="X(3,72,3607)" index="730866" value="1"/>
  <variable name="X(4,1,4406)" index="736357" value="1"/>
  <variable name="X(4,2,4139)" index="740782" value="1"/>
  <variable name="X(4,3,3607)" index="744942" value="1"/>
  <variable name="X(4,6,2592)" index="748619" value="1"/>
  <variable name="X(4,23,430)" index="751149" value="1"/>
  <variable name="X(4,46,4058)" index="759469" value="1"/>
  <variable name="X(4,47,3107)" index="763210" value="1"/>
  <variable name="X(4,62,761)" index="765556" value="1"/>
  <variable name="X(4,73,4492)" index="773979" value="1"/>
  <variable name="X(5,6,327)" index="774506" value="1"/>
  <variable name="X(5,8,2592)" index="781463" value="1"/>
  <variable name="X(5,74,3473)" index="787036" value="1"/>
  <variable name="X(6,4,761)" index="789016" value="1"/>
  <variable name="X(6,5,2592)" index="795539" value="1"/>
  <variable name="X(6,11,4636)" index="802275" value="1"/>
  <variable name="X(6,55,327)" index="802658" value="1"/>
  <variable name="X(6,75,3746)" index="810769" value="1"/>
  <variable name="X(7,2,430)" index="812145" value="1"/>
  <variable name="X(7,52,3588)" index="819995" value="1"/>
  <variable name="X(7,76,483)" index="821582" value="1"/>
  <variable name="X(8,5,3473)" index="829264" value="1"/>
  <variable name="X(8,52,483)" index="830966" value="1"/>
  <variable name="X(8,77,2592)" index="837767" value="1"/>
  <variable name="X(9,10,2730)" index="842597" value="1"/>
  <variable name="X(9,30,2481)" index="847040" value="1"/>
  <variable name="X(9,37,4456)" index="853707" value="1"/>
  <variable name="X(9,38,2622)" index="856565" value="1"/>
  <variable name="X(9,63,2557)" index="861192" value="1"/>
  <variable name="X(9,66,3057)" index="866384" value="1"/>
  <variable name="X(9,78,1777)" index="869796" value="1"/>
  <variable name="X(10,9,1777)" index="874488" value="1"/>
  <variable name="X(10,27,673)" index="878076" value="1"/>
  <variable name="X(10,79,2730)" index="884825" value="1"/>
  <variable name="X(11,6,761)" index="887548" value="1"/>
  <variable name="X(11,12,4636)" index="896115" value="1"/>
  <variable name="X(11,51,729)" index="896900" value="1"/>
  <variable name="X(11,80,3275)" index="904138" value="1"/>
  <variable name="X(12,11,761)" index="906316" value="1"/>
  <variable name="X(12,81,4636)" index="914883" value="1"/>
  <variable name="X(13,14,761)" index="915700" value="1"/>
  <variable name="X(13,16,2752)" index="922383" value="1"/>
  <variable name="X(13,30,4654)" index="928977" value="1"/>
  <variable name="X(13,33,2481)" index="931496" value="1"/>
  <variable name="X(13,62,922)" index="934629" value="1"/>
  <variable name="X(13,82,965)" index="939364" value="1"/>
  <variable name="X(14,13,922)" index="944013" value="1"/>
  <variable name="X(14,30,3835)" index="951618" value="1"/>
  <variable name="X(14,41,1808)" index="954283" value="1"/>
  <variable name="X(14,44,2300)" index="959467" value="1"/>
  <variable name="X(14,83,761)" index="962620" value="1"/>
  <variable name="X(15,31,3023)" index="969574" value="1"/>
  <variable name="X(15,32,2084)" index="973327" value="1"/>
  <variable name="X(15,84,2871)" index="978806" value="1"/>
  <variable name="X(16,13,965)" index="981592" value="1"/>
  <variable name="X(16,43,2752)" index="988071" value="1"/>
  <variable name="X(16,44,1063)" index="991074" value="1"/>
  <variable name="X(16,85,4232)" index="998935" value="1"/>
  <variable name="X(17,18,922)" index="1000317" value="1"/>
  <variable name="X(17,23,2812)" index="1006899" value="1"/>
  <variable name="X(17,40,4256)" index="1013035" value="1"/>
  <variable name="X(17,62,2622)" index="1016093" value="1"/>
  <variable name="X(17,86,1309)" index="1019472" value="1"/>
  <variable name="X(18,17,2622)" index="1025477" value="1"/>
  <variable name="X(18,26,922)" index="1028469" value="1"/>
  <variable name="X(18,87,1105)" index="1033344" value="1"/>
  <variable name="X(19,20,4372)" index="1041303" value="1"/>
  <variable name="X(19,21,1925)" index="1043548" value="1"/>
  <variable name="X(19,24,1309)" index="1047624" value="1"/>
  <variable name="X(19,47,1474)" index="1052481" value="1"/>
  <variable name="X(19,88,1787)" index="1057486" value="1"/>
  <variable name="X(20,19,1309)" index="1061700" value="1"/>
  <variable name="X(20,89,4372)" index="1069455" value="1"/>
  <variable name="X(21,19,1474)" index="1071249" value="1"/>
  <variable name="X(21,22,1370)" index="1075837" value="1"/>
  <variable name="X(21,90,1925)" index="1081084" value="1"/>
  <variable name="X(22,21,1474)" index="1085325" value="1"/>
  <variable name="X(22,23,1370)" index="1089913" value="1"/>
  <variable name="X(22,91,1858)" index="1095093" value="1"/>
  <variable name="X(23,4,2592)" index="1100519" value="1"/>
  <variable name="X(23,17,1309)" index="1103928" value="1"/>
  <variable name="X(23,22,1858)" index="1109169" value="1"/>
  <variable name="X(23,24,2812)" index="1114815" value="1"/>
  <variable name="X(23,25,3766)" index="1120461" value="1"/>
  <variable name="X(23,62,1370)" index="1122757" value="1"/>
  <variable name="X(23,92,430)" index="1126509" value="1"/>
  <variable name="X(24,1,1565)" index="1132336" value="1"/>
  <variable name="X(24,19,1925)" index="1137388" value="1"/>
  <variable name="X(24,23,1309)" index="1141464" value="1"/>
  <variable name="X(24,93,2812)" index="1147659" value="1"/>
  <variable name="X(25,23,2592)" index="1152131" value="1"/>
  <variable name="X(25,26,3766)" index="1157997" value="1"/>
  <variable name="X(25,94,1520)" index="1160443" value="1"/>
  <variable name="X(26,18,2622)" index="1166237" value="1"/>
  <variable name="X(26,25,2592)" index="1170899" value="1"/>
  <variable name="X(26,39,922)" index="1173921" value="1"/>
  <variable name="X(26,95,3766)" index="1181457" value="1"/>
  <variable name="X(27,10,1777)" index="1184160" value="1"/>
  <variable name="X(27,30,1808)" index="1188883" value="1"/>
  <variable name="X(27,62,673)" index="1192440" value="1"/>
  <variable name="X(27,96,3835)" index="1200294" value="1"/>
  <variable name="X(28,36,4456)" index="1205607" value="1"/>
  <variable name="X(28,37,2348)" index="1208191" value="1"/>
  <variable name="X(28,62,1858)" index="1212393" value="1"/>
  <variable name="X(28,97,3836)" index="1219063" value="1"/>
  <variable name="X(29,33,1925)" index="1221844" value="1"/>
  <variable name="X(29,98,844)" index="1225455" value="1"/>
  <variable name="X(30,9,2730)" index="1232033" value="1"/>
  <variable name="X(30,13,2481)" index="1236476" value="1"/>
  <variable name="X(30,14,1808)" index="1240495" value="1"/>
  <variable name="X(30,27,3835)" index="1247214" value="1"/>
  <variable name="X(30,99,4654)" index="1252725" value="1"/>
  <variable name="X(31,15,2871)" index="1255634" value="1"/>
  <variable name="X(31,57,965)" index="1258420" value="1"/>
  <variable name="X(31,100,3023)" index="1265170" value="1"/>
  <variable name="X(32,15,3023)" index="1269862" value="1"/>
  <variable name="X(32,45,2084)" index="1273615" value="1"/>
  <variable name="X(32,101,2752)" index="1278975" value="1"/>
  <variable name="X(33,2,1925)" index="1282840" value="1"/>
  <variable name="X(33,13,4654)" index="1290261" value="1"/>
  <variable name="X(33,29,844)" index="1291143" value="1"/>
  <variable name="X(33,102,2481)" index="1297472" value="1"/>
  <variable name="X(34,41,2300)" index="1301983" value="1"/>
  <variable name="X(34,103,2754)" index="1307129" value="1"/>
  <variable name="X(35,36,2348)" index="1311415" value="1"/>
  <variable name="X(35,63,2428)" index="1316187" value="1"/>
  <variable name="X(35,104,2823)" index="1321274" value="1"/>
  <variable name="X(36,28,2348)" index="1325491" value="1"/>
  <variable name="X(36,35,2428)" index="1330263" value="1"/>
  <variable name="X(36,105,4456)" index="1336983" value="1"/>
  <variable name="X(37,9,2481)" index="1339700" value="1"/>
  <variable name="X(37,28,4456)" index="1346367" value="1"/>
  <variable name="X(37,106,2348)" index="1348951" value="1"/>
  <variable name="X(38,9,2557)" index="1353852" value="1"/>
  <variable name="X(38,107,2622)" index="1358609" value="1"/>
  <variable name="X(39,26,2622)" index="1363301" value="1"/>
  <variable name="X(39,108,922)" index="1366293" value="1"/>
  <variable name="X(40,17,2812)" index="1372875" value="1"/>
  <variable name="X(40,42,2709)" index="1377464" value="1"/>
  <variable name="X(40,109,4256)" index="1383703" value="1"/>
  <variable name="X(41,14,2300)" index="1386439" value="1"/>
  <variable name="X(41,34,2754)" index="1391585" value="1"/>
  <variable name="X(41,110,1808)" index="1395331" value="1"/>
  <variable name="X(42,40,2812)" index="1401027" value="1"/>
  <variable name="X(42,64,2709)" index="1405616" value="1"/>
  <variable name="X(42,111,2557)" index="1410156" value="1"/>
  <variable name="X(43,16,965)" index="1413256" value="1"/>
  <variable name="X(43,45,2752)" index="1419735" value="1"/>
  <variable name="X(43,57,2871)" index="1424546" value="1"/>
  <variable name="X(43,112,2150)" index="1428517" value="1"/>
  <variable name="X(44,14,3835)" index="1434894" value="1"/>
  <variable name="X(44,16,4232)" index="1439983" value="1"/>
  <variable name="X(44,57,2300)" index="1442743" value="1"/>
  <variable name="X(44,63,3836)" index="1448971" value="1"/>
  <variable name="X(44,113,1063)" index="1450890" value="1"/>
  <variable name="X(45,32,2752)" index="1457271" value="1"/>
  <variable name="X(45,43,2150)" index="1461361" value="1"/>
  <variable name="X(45,114,2084)" index="1465987" value="1"/>
  <variable name="X(46,4,3107)" index="1471702" value="1"/>
  <variable name="X(46,115,4058)" index="1477345" value="1"/>
  <variable name="X(47,4,3607)" index="1481586" value="1"/>
  <variable name="X(47,19,1787)" index="1484458" value="1"/>
  <variable name="X(47,48,3107)" index="1490470" value="1"/>
  <variable name="X(47,116,1474)" index="1493529" value="1"/>
  <variable name="X(48,47,3607)" index="1500354" value="1"/>
  <variable name="X(48,54,3248)" index="1504687" value="1"/>
  <variable name="X(48,117,3107)" index="1509238" value="1"/>
  <variable name="X(49,2,3462)" index="1514285" value="1"/>
  <variable name="X(49,51,3275)" index="1518790" value="1"/>
  <variable name="X(49,118,2428)" index="1522635" value="1"/>
  <variable name="X(50,1,3468)" index="1528367" value="1"/>
  <variable name="X(50,51,4675)" index="1534266" value="1"/>
  <variable name="X(50,119,729)" index="1535012" value="1"/>
  <variable name="X(51,11,3275)" index="1542250" value="1"/>
  <variable name="X(51,49,3462)" index="1547129" value="1"/>
  <variable name="X(51,50,729)" index="1549088" value="1"/>
  <variable name="X(51,120,4675)" index="1557726" value="1"/>
  <variable name="X(52,7,483)" index="1558226" value="1"/>
  <variable name="X(52,8,3473)" index="1565908" value="1"/>
  <variable name="X(52,121,3588)" index="1570715" value="1"/>
  <variable name="X(53,55,3588)" index="1575407" value="1"/>
  <variable name="X(53,122,3248)" index="1579759" value="1"/>
  <variable name="X(54,48,3607)" index="1584810" value="1"/>
  <variable name="X(54,55,3248)" index="1589143" value="1"/>
  <variable name="X(54,123,4406)" index="1594993" value="1"/>
  <variable name="X(55,1,3588)" index="1598867" value="1"/>
  <variable name="X(55,6,3746)" index="1603717" value="1"/>
  <variable name="X(55,53,3248)" index="1607911" value="1"/>
  <variable name="X(55,54,4406)" index="1613761" value="1"/>
  <variable name="X(55,56,327)" index="1614374" value="1"/>
  <variable name="X(55,124,54)" index="1618793" value="1"/>
  <variable name="X(56,55,3746)" index="1627177" value="1"/>
  <variable name="X(56,125,327)" index="1628450" value="1"/>
  <variable name="X(57,31,2871)" index="1635686" value="1"/>
  <variable name="X(57,43,965)" index="1638472" value="1"/>
  <variable name="X(57,44,3835)" index="1646034" value="1"/>
  <variable name="X(57,126,2300)" index="1649191" value="1"/>
  <variable name="X(58,65,4689)" index="1656272" value="1"/>
  <variable name="X(58,67,2854)" index="1659129" value="1"/>
  <variable name="X(58,127,2709)" index="1663676" value="1"/>
  <variable name="X(59,2,3946)" index="1669605" value="1"/>
  <variable name="X(59,128,4139)" index="1674490" value="1"/>
  <variable name="X(60,61,4549)" index="1679592" value="1"/>
  <variable name="X(60,68,4079)" index="1683814" value="1"/>
  <variable name="X(60,129,3255)" index="1687682" value="1"/>
  <variable name="X(61,3,4058)" index="1693177" value="1"/>
  <variable name="X(61,60,3255)" index="1697066" value="1"/>
  <variable name="X(61,130,4549)" index="1703052" value="1"/>
  <variable name="X(62,4,4406)" index="1707601" value="1"/>
  <variable name="X(62,13,761)" index="1708648" value="1"/>
  <variable name="X(62,17,922)" index="1713501" value="1"/>
  <variable name="X(62,23,1858)" index="1719129" value="1"/>
  <variable name="X(62,27,1370)" index="1723333" value="1"/>
  <variable name="X(62,28,3836)" index="1730491" value="1"/>
  <variable name="X(62,63,2622)" index="1733969" value="1"/>
  <variable name="X(62,64,3123)" index="1739162" value="1"/>
  <variable name="X(62,131,673)" index="1741404" value="1"/>
  <variable name="X(63,2,2428)" index="1747851" value="1"/>
  <variable name="X(63,9,2622)" index="1752737" value="1"/>
  <variable name="X(63,35,2823)" index="1757630" value="1"/>
  <variable name="X(63,44,4232)" index="1763731" value="1"/>
  <variable name="X(63,62,3836)" index="1768027" value="1"/>
  <variable name="X(63,64,2557)" index="1771440" value="1"/>
  <variable name="X(63,132,3462)" index="1777037" value="1"/>
  <variable name="X(64,42,2557)" index="1780824" value="1"/>
  <variable name="X(64,62,4406)" index="1787365" value="1"/>
  <variable name="X(64,63,2823)" index="1790474" value="1"/>
  <variable name="X(64,65,2709)" index="1795052" value="1"/>
  <variable name="X(64,133,3123)" index="1800158" value="1"/>
  <variable name="X(65,58,2709)" index="1804436" value="1"/>
  <variable name="X(65,64,4406)" index="1810825" value="1"/>
  <variable name="X(65,134,4689)" index="1815800" value="1"/>
  <variable name="X(66,9,4456)" index="1820259" value="1"/>
  <variable name="X(66,135,3057)" index="1823552" value="1"/>
  <variable name="X(67,58,4689)" index="1829876" value="1"/>
  <variable name="X(67,68,4549)" index="1834428" value="1"/>
  <variable name="X(67,136,2854)" index="1837425" value="1"/>
  <variable name="X(68,60,4549)" index="1843812" value="1"/>
  <variable name="X(68,67,4689)" index="1848644" value="1"/>
  <variable name="X(68,69,4492)" index="1853139" value="1"/>
  <variable name="X(68,137,4079)" index="1857418" value="1"/>
  <variable name="X(69,1,4492)" index="1862523" value="1"/>
  <variable name="X(69,68,4689)" index="1867412" value="1"/>
  <variable name="X(69,138,3468)" index="1870883" value="1"/>
 </variables>
</CPLEXSolution>
